c nIsolatedPIs 3
c maxPI 132
p cnf 731 1798
c gate 133 -38 127 0
-38 -133 0
127 -133 0
38 -127 133 0
c gate 134 -40 -127 0
-40 -134 0
-127 -134 0
40 127 134 0
c gate 135 -126 -134 0
-126 -135 0
-134 -135 0
126 134 135 0
c gate 136 -133 135 0
-133 -136 0
135 -136 0
133 -135 136 0
c gate 137 -37 127 0
-37 -137 0
127 -137 0
37 -127 137 0
c gate 138 -39 -127 0
-39 -138 0
-127 -138 0
39 127 138 0
c gate 139 126 -138 0
126 -139 0
-138 -139 0
-126 138 139 0
c gate 140 -137 139 0
-137 -140 0
139 -140 0
137 -139 140 0
c gate 141 129 -140 0
129 -141 0
-140 -141 0
-129 140 141 0
c gate 142 -136 141 0
-136 -142 0
141 -142 0
136 -141 142 0
c gate 143 -45 127 0
-45 -143 0
127 -143 0
45 -127 143 0
c gate 144 -47 -127 0
-47 -144 0
-127 -144 0
47 127 144 0
c gate 145 126 -144 0
126 -145 0
-144 -145 0
-126 144 145 0
c gate 146 -143 145 0
-143 -146 0
145 -146 0
143 -145 146 0
c gate 147 -46 127 0
-46 -147 0
127 -147 0
46 -127 147 0
c gate 148 -48 -127 0
-48 -148 0
-127 -148 0
48 127 148 0
c gate 149 -126 -148 0
-126 -149 0
-148 -149 0
126 148 149 0
c gate 150 -147 149 0
-147 -150 0
149 -150 0
147 -149 150 0
c gate 151 -146 -150 0
-146 -151 0
-150 -151 0
146 150 151 0
c gate 152 -129 151 0
-129 -152 0
151 -152 0
129 -151 152 0
c gate 153 -128 -152 0
-128 -153 0
-152 -153 0
128 152 153 0
c gate 154 -142 153 0
-142 -154 0
153 -154 0
142 -153 154 0
c gate 155 -34 127 0
-34 -155 0
127 -155 0
34 -127 155 0
c gate 156 -36 -127 0
-36 -156 0
-127 -156 0
36 127 156 0
c gate 157 -126 -156 0
-126 -157 0
-156 -157 0
126 156 157 0
c gate 158 -155 157 0
-155 -158 0
157 -158 0
155 -157 158 0
c gate 159 -33 127 0
-33 -159 0
127 -159 0
33 -127 159 0
c gate 160 -35 -127 0
-35 -160 0
-127 -160 0
35 127 160 0
c gate 161 126 -160 0
126 -161 0
-160 -161 0
-126 160 161 0
c gate 162 -159 161 0
-159 -162 0
161 -162 0
159 -161 162 0
c gate 163 129 -162 0
129 -163 0
-162 -163 0
-129 162 163 0
c gate 164 -158 163 0
-158 -164 0
163 -164 0
158 -163 164 0
c gate 165 -41 127 0
-41 -165 0
127 -165 0
41 -127 165 0
c gate 166 -43 -127 0
-43 -166 0
-127 -166 0
43 127 166 0
c gate 167 126 -166 0
126 -167 0
-166 -167 0
-126 166 167 0
c gate 168 -165 167 0
-165 -168 0
167 -168 0
165 -167 168 0
c gate 169 -42 127 0
-42 -169 0
127 -169 0
42 -127 169 0
c gate 170 -44 -127 0
-44 -170 0
-127 -170 0
44 127 170 0
c gate 171 -126 -170 0
-126 -171 0
-170 -171 0
126 170 171 0
c gate 172 -169 171 0
-169 -172 0
171 -172 0
169 -171 172 0
c gate 173 -168 -172 0
-168 -173 0
-172 -173 0
168 172 173 0
c gate 174 -129 173 0
-129 -174 0
173 -174 0
129 -173 174 0
c gate 175 128 -174 0
128 -175 0
-174 -175 0
-128 174 175 0
c gate 176 -164 175 0
-164 -176 0
175 -176 0
164 -175 176 0
c gate 177 -154 -176 0
-154 -177 0
-176 -177 0
154 176 177 0
c gate 178 131 -177 0
131 -178 0
-177 -178 0
-131 177 178 0
c gate 179 -67 -127 0
-67 -179 0
-127 -179 0
67 127 179 0
c gate 180 -65 127 0
-65 -180 0
127 -180 0
65 -127 180 0
c gate 181 -179 -180 0
-179 -181 0
-180 -181 0
179 180 181 0
c gate 182 126 181 0
126 -182 0
181 -182 0
-126 -181 182 0
c gate 183 -66 127 0
-66 -183 0
127 -183 0
66 -127 183 0
c gate 184 -68 -127 0
-68 -184 0
-127 -184 0
68 127 184 0
c gate 185 -126 -184 0
-126 -185 0
-184 -185 0
126 184 185 0
c gate 186 -183 185 0
-183 -186 0
185 -186 0
183 -185 186 0
c gate 187 129 -186 0
129 -187 0
-186 -187 0
-129 186 187 0
c gate 188 -182 187 0
-182 -188 0
187 -188 0
182 -187 188 0
c gate 189 -75 -127 0
-75 -189 0
-127 -189 0
75 127 189 0
c gate 190 -73 127 0
-73 -190 0
127 -190 0
73 -127 190 0
c gate 191 -189 -190 0
-189 -191 0
-190 -191 0
189 190 191 0
c gate 192 126 191 0
126 -192 0
191 -192 0
-126 -191 192 0
c gate 193 -74 127 0
-74 -193 0
127 -193 0
74 -127 193 0
c gate 194 -76 -127 0
-76 -194 0
-127 -194 0
76 127 194 0
c gate 195 -126 -194 0
-126 -195 0
-194 -195 0
126 194 195 0
c gate 196 -193 195 0
-193 -196 0
195 -196 0
193 -195 196 0
c gate 197 -129 -196 0
-129 -197 0
-196 -197 0
129 196 197 0
c gate 198 -192 197 0
-192 -198 0
197 -198 0
192 -197 198 0
c gate 199 -188 -198 0
-188 -199 0
-198 -199 0
188 198 199 0
c gate 200 128 -199 0
128 -200 0
-199 -200 0
-128 199 200 0
c gate 201 -79 -127 0
-79 -201 0
-127 -201 0
79 127 201 0
c gate 202 -77 127 0
-77 -202 0
127 -202 0
77 -127 202 0
c gate 203 -201 -202 0
-201 -203 0
-202 -203 0
201 202 203 0
c gate 204 126 203 0
126 -204 0
203 -204 0
-126 -203 204 0
c gate 205 -78 127 0
-78 -205 0
127 -205 0
78 -127 205 0
c gate 206 -80 -127 0
-80 -206 0
-127 -206 0
80 127 206 0
c gate 207 -126 -206 0
-126 -207 0
-206 -207 0
126 206 207 0
c gate 208 -205 207 0
-205 -208 0
207 -208 0
205 -207 208 0
c gate 209 -129 -208 0
-129 -209 0
-208 -209 0
129 208 209 0
c gate 210 -204 209 0
-204 -210 0
209 -210 0
204 -209 210 0
c gate 211 -71 -127 0
-71 -211 0
-127 -211 0
71 127 211 0
c gate 212 -69 127 0
-69 -212 0
127 -212 0
69 -127 212 0
c gate 213 -211 -212 0
-211 -213 0
-212 -213 0
211 212 213 0
c gate 214 126 213 0
126 -214 0
213 -214 0
-126 -213 214 0
c gate 215 -70 127 0
-70 -215 0
127 -215 0
70 -127 215 0
c gate 216 -72 -127 0
-72 -216 0
-127 -216 0
72 127 216 0
c gate 217 -126 -216 0
-126 -217 0
-216 -217 0
126 216 217 0
c gate 218 -215 217 0
-215 -218 0
217 -218 0
215 -217 218 0
c gate 219 129 -218 0
129 -219 0
-218 -219 0
-129 218 219 0
c gate 220 -214 219 0
-214 -220 0
219 -220 0
214 -219 220 0
c gate 221 -210 -220 0
-210 -221 0
-220 -221 0
210 220 221 0
c gate 222 -128 -221 0
-128 -222 0
-221 -222 0
128 221 222 0
c gate 223 -131 -222 0
-131 -223 0
-222 -223 0
131 222 223 0
c gate 224 -200 223 0
-200 -224 0
223 -224 0
200 -223 224 0
c gate 225 -178 -224 0
-178 -225 0
-224 -225 0
178 224 225 0
c gate 226 130 -225 0
130 -226 0
-225 -226 0
-130 225 226 0
c gate 227 132 226 0
132 -227 0
226 -227 0
-132 -226 227 0
c gate 228 12 -127 0
12 -228 0
-127 -228 0
-12 127 228 0
c gate 229 10 127 0
10 -229 0
127 -229 0
-10 -127 229 0
c gate 230 -126 -229 0
-126 -230 0
-229 -230 0
126 229 230 0
c gate 231 -228 230 0
-228 -231 0
230 -231 0
228 -230 231 0
c gate 232 11 -127 0
11 -232 0
-127 -232 0
-11 127 232 0
c gate 233 9 127 0
9 -233 0
127 -233 0
-9 -127 233 0
c gate 234 126 -233 0
126 -234 0
-233 -234 0
-126 233 234 0
c gate 235 -232 234 0
-232 -235 0
234 -235 0
232 -234 235 0
c gate 236 -231 -235 0
-231 -236 0
-235 -236 0
231 235 236 0
c gate 237 129 -236 0
129 -237 0
-236 -237 0
-129 236 237 0
c gate 238 19 -127 0
19 -238 0
-127 -238 0
-19 127 238 0
c gate 239 17 127 0
17 -239 0
127 -239 0
-17 -127 239 0
c gate 240 126 -239 0
126 -240 0
-239 -240 0
-126 239 240 0
c gate 241 -238 240 0
-238 -241 0
240 -241 0
238 -240 241 0
c gate 242 20 -127 0
20 -242 0
-127 -242 0
-20 127 242 0
c gate 243 18 127 0
18 -243 0
127 -243 0
-18 -127 243 0
c gate 244 -126 -243 0
-126 -244 0
-243 -244 0
126 243 244 0
c gate 245 -242 244 0
-242 -245 0
244 -245 0
242 -244 245 0
c gate 246 -241 -245 0
-241 -246 0
-245 -246 0
241 245 246 0
c gate 247 -129 -246 0
-129 -247 0
-246 -247 0
129 246 247 0
c gate 248 128 -247 0
128 -248 0
-247 -248 0
-128 247 248 0
c gate 249 -237 248 0
-237 -249 0
248 -249 0
237 -248 249 0
c gate 250 16 -127 0
16 -250 0
-127 -250 0
-16 127 250 0
c gate 251 14 127 0
14 -251 0
127 -251 0
-14 -127 251 0
c gate 252 -126 -251 0
-126 -252 0
-251 -252 0
126 251 252 0
c gate 253 -250 252 0
-250 -253 0
252 -253 0
250 -252 253 0
c gate 254 15 -127 0
15 -254 0
-127 -254 0
-15 127 254 0
c gate 255 13 127 0
13 -255 0
127 -255 0
-13 -127 255 0
c gate 256 126 -255 0
126 -256 0
-255 -256 0
-126 255 256 0
c gate 257 -254 256 0
-254 -257 0
256 -257 0
254 -256 257 0
c gate 258 -253 -257 0
-253 -258 0
-257 -258 0
253 257 258 0
c gate 259 129 -258 0
129 -259 0
-258 -259 0
-129 258 259 0
c gate 260 23 -127 0
23 -260 0
-127 -260 0
-23 127 260 0
c gate 261 21 127 0
21 -261 0
127 -261 0
-21 -127 261 0
c gate 262 126 -261 0
126 -262 0
-261 -262 0
-126 261 262 0
c gate 263 -260 262 0
-260 -263 0
262 -263 0
260 -262 263 0
c gate 264 24 -127 0
24 -264 0
-127 -264 0
-24 127 264 0
c gate 265 22 127 0
22 -265 0
127 -265 0
-22 -127 265 0
c gate 266 -126 -265 0
-126 -266 0
-265 -266 0
126 265 266 0
c gate 267 -264 266 0
-264 -267 0
266 -267 0
264 -266 267 0
c gate 268 -263 -267 0
-263 -268 0
-267 -268 0
263 267 268 0
c gate 269 -129 -268 0
-129 -269 0
-268 -269 0
129 268 269 0
c gate 270 -128 -269 0
-128 -270 0
-269 -270 0
128 269 270 0
c gate 271 -259 270 0
-259 -271 0
270 -271 0
259 -270 271 0
c gate 272 -249 -271 0
-249 -272 0
-271 -272 0
249 271 272 0
c gate 273 131 272 0
131 -273 0
272 -273 0
-131 -272 273 0
c gate 274 129 173 0
129 -274 0
173 -274 0
-129 -173 274 0
c gate 275 -50 127 0
-50 -275 0
127 -275 0
50 -127 275 0
c gate 276 -52 -127 0
-52 -276 0
-127 -276 0
52 127 276 0
c gate 277 -126 -276 0
-126 -277 0
-276 -277 0
126 276 277 0
c gate 278 -275 277 0
-275 -278 0
277 -278 0
275 -277 278 0
c gate 279 -49 127 0
-49 -279 0
127 -279 0
49 -127 279 0
c gate 280 -51 -127 0
-51 -280 0
-127 -280 0
51 127 280 0
c gate 281 126 -280 0
126 -281 0
-280 -281 0
-126 280 281 0
c gate 282 -279 281 0
-279 -282 0
281 -282 0
279 -281 282 0
c gate 283 -129 -282 0
-129 -283 0
-282 -283 0
129 282 283 0
c gate 284 -278 283 0
-278 -284 0
283 -284 0
278 -283 284 0
c gate 285 128 -284 0
128 -285 0
-284 -285 0
-128 284 285 0
c gate 286 -274 285 0
-274 -286 0
285 -286 0
274 -285 286 0
c gate 287 129 151 0
129 -287 0
151 -287 0
-129 -151 287 0
c gate 288 -54 127 0
-54 -288 0
127 -288 0
54 -127 288 0
c gate 289 -56 -127 0
-56 -289 0
-127 -289 0
56 127 289 0
c gate 290 -126 -289 0
-126 -290 0
-289 -290 0
126 289 290 0
c gate 291 -288 290 0
-288 -291 0
290 -291 0
288 -290 291 0
c gate 292 -53 127 0
-53 -292 0
127 -292 0
53 -127 292 0
c gate 293 -55 -127 0
-55 -293 0
-127 -293 0
55 127 293 0
c gate 294 126 -293 0
126 -294 0
-293 -294 0
-126 293 294 0
c gate 295 -292 294 0
-292 -295 0
294 -295 0
292 -294 295 0
c gate 296 -129 -295 0
-129 -296 0
-295 -296 0
129 295 296 0
c gate 297 -291 296 0
-291 -297 0
296 -297 0
291 -296 297 0
c gate 298 -128 -297 0
-128 -298 0
-297 -298 0
128 297 298 0
c gate 299 -287 298 0
-287 -299 0
298 -299 0
287 -298 299 0
c gate 300 -131 -299 0
-131 -300 0
-299 -300 0
131 299 300 0
c gate 301 -286 300 0
-286 -301 0
300 -301 0
286 -300 301 0
c gate 302 130 -301 0
130 -302 0
-301 -302 0
-130 301 302 0
c gate 303 -273 302 0
-273 -303 0
302 -303 0
273 -302 303 0
c gate 304 132 303 0
132 -304 0
303 -304 0
-132 -303 304 0
c gate 305 -56 127 0
-56 -305 0
127 -305 0
56 -127 305 0
c gate 306 -58 -127 0
-58 -306 0
-127 -306 0
58 127 306 0
c gate 307 -126 -306 0
-126 -307 0
-306 -307 0
126 306 307 0
c gate 308 -305 307 0
-305 -308 0
307 -308 0
305 -307 308 0
c gate 309 -55 127 0
-55 -309 0
127 -309 0
55 -127 309 0
c gate 310 -57 -127 0
-57 -310 0
-127 -310 0
57 127 310 0
c gate 311 126 -310 0
126 -311 0
-310 -311 0
-126 310 311 0
c gate 312 -309 311 0
-309 -312 0
311 -312 0
309 -311 312 0
c gate 313 -308 -312 0
-308 -313 0
-312 -313 0
308 312 313 0
c gate 314 129 -313 0
129 -314 0
-313 -314 0
-129 313 314 0
c gate 315 -63 127 0
-63 -315 0
127 -315 0
63 -127 315 0
c gate 316 -65 -127 0
-65 -316 0
-127 -316 0
65 127 316 0
c gate 317 -315 -316 0
-315 -317 0
-316 -317 0
315 316 317 0
c gate 318 126 -317 0
126 -318 0
-317 -318 0
-126 317 318 0
c gate 319 -64 127 0
-64 -319 0
127 -319 0
64 -127 319 0
c gate 320 -66 -127 0
-66 -320 0
-127 -320 0
66 127 320 0
c gate 321 -319 -320 0
-319 -321 0
-320 -321 0
319 320 321 0
c gate 322 -126 -321 0
-126 -322 0
-321 -322 0
126 321 322 0
c gate 323 -129 -322 0
-129 -323 0
-322 -323 0
129 322 323 0
c gate 324 -318 323 0
-318 -324 0
323 -324 0
318 -323 324 0
c gate 325 -314 -324 0
-314 -325 0
-324 -325 0
314 324 325 0
c gate 326 -128 -325 0
-128 -326 0
-325 -326 0
128 325 326 0
c gate 327 54 -127 0
54 -327 0
-127 -327 0
-54 127 327 0
c gate 328 52 127 0
52 -328 0
127 -328 0
-52 -127 328 0
c gate 329 -126 -328 0
-126 -329 0
-328 -329 0
126 328 329 0
c gate 330 -327 329 0
-327 -330 0
329 -330 0
327 -329 330 0
c gate 331 51 127 0
51 -331 0
127 -331 0
-51 -127 331 0
c gate 332 53 -127 0
53 -332 0
-127 -332 0
-53 127 332 0
c gate 333 126 -332 0
126 -333 0
-332 -333 0
-126 332 333 0
c gate 334 -331 333 0
-331 -334 0
333 -334 0
331 -333 334 0
c gate 335 -330 -334 0
-330 -335 0
-334 -335 0
330 334 335 0
c gate 336 129 -335 0
129 -336 0
-335 -336 0
-129 335 336 0
c gate 337 61 -127 0
61 -337 0
-127 -337 0
-61 127 337 0
c gate 338 59 127 0
59 -338 0
127 -338 0
-59 -127 338 0
c gate 339 126 -338 0
126 -339 0
-338 -339 0
-126 338 339 0
c gate 340 -337 339 0
-337 -340 0
339 -340 0
337 -339 340 0
c gate 341 60 127 0
60 -341 0
127 -341 0
-60 -127 341 0
c gate 342 62 -127 0
62 -342 0
-127 -342 0
-62 127 342 0
c gate 343 -126 -342 0
-126 -343 0
-342 -343 0
126 342 343 0
c gate 344 -341 343 0
-341 -344 0
343 -344 0
341 -343 344 0
c gate 345 -340 -344 0
-340 -345 0
-344 -345 0
340 344 345 0
c gate 346 -129 -345 0
-129 -346 0
-345 -346 0
129 345 346 0
c gate 347 128 -346 0
128 -347 0
-346 -347 0
-128 346 347 0
c gate 348 -336 347 0
-336 -348 0
347 -348 0
336 -347 348 0
c gate 349 -326 -348 0
-326 -349 0
-348 -349 0
326 348 349 0
c gate 350 -131 -349 0
-131 -350 0
-349 -350 0
131 349 350 0
c gate 351 27 127 0
27 -351 0
127 -351 0
-27 -127 351 0
c gate 352 29 -127 0
29 -352 0
-127 -352 0
-29 127 352 0
c gate 353 126 -352 0
126 -353 0
-352 -353 0
-126 352 353 0
c gate 354 -351 353 0
-351 -354 0
353 -354 0
351 -353 354 0
c gate 355 28 127 0
28 -355 0
127 -355 0
-28 -127 355 0
c gate 356 30 -127 0
30 -356 0
-127 -356 0
-30 127 356 0
c gate 357 -126 -356 0
-126 -357 0
-356 -357 0
126 356 357 0
c gate 358 -355 357 0
-355 -358 0
357 -358 0
355 -357 358 0
c gate 359 -354 -358 0
-354 -359 0
-358 -359 0
354 358 359 0
c gate 360 -129 -359 0
-129 -360 0
-359 -360 0
129 359 360 0
c gate 361 19 127 0
19 -361 0
127 -361 0
-19 -127 361 0
c gate 362 21 -127 0
21 -362 0
-127 -362 0
-21 127 362 0
c gate 363 126 -362 0
126 -363 0
-362 -363 0
-126 362 363 0
c gate 364 -361 363 0
-361 -364 0
363 -364 0
361 -363 364 0
c gate 365 20 127 0
20 -365 0
127 -365 0
-20 -127 365 0
c gate 366 22 -127 0
22 -366 0
-127 -366 0
-22 127 366 0
c gate 367 -126 -366 0
-126 -367 0
-366 -367 0
126 366 367 0
c gate 368 -365 367 0
-365 -368 0
367 -368 0
365 -367 368 0
c gate 369 -364 -368 0
-364 -369 0
-368 -369 0
364 368 369 0
c gate 370 129 -369 0
129 -370 0
-369 -370 0
-129 369 370 0
c gate 371 -360 -370 0
-360 -371 0
-370 -371 0
360 370 371 0
c gate 372 128 -371 0
128 -372 0
-371 -372 0
-128 371 372 0
c gate 373 24 127 0
24 -373 0
127 -373 0
-24 -127 373 0
c gate 374 26 -127 0
26 -374 0
-127 -374 0
-26 127 374 0
c gate 375 -126 -374 0
-126 -375 0
-374 -375 0
126 374 375 0
c gate 376 -373 375 0
-373 -376 0
375 -376 0
373 -375 376 0
c gate 377 23 127 0
23 -377 0
127 -377 0
-23 -127 377 0
c gate 378 25 -127 0
25 -378 0
-127 -378 0
-25 127 378 0
c gate 379 126 -378 0
126 -379 0
-378 -379 0
-126 378 379 0
c gate 380 -377 379 0
-377 -380 0
379 -380 0
377 -379 380 0
c gate 381 -376 -380 0
-376 -381 0
-380 -381 0
376 380 381 0
c gate 382 129 -381 0
129 -382 0
-381 -382 0
-129 381 382 0
c gate 383 32 127 0
32 -383 0
127 -383 0
-32 -127 383 0
c gate 384 34 -127 0
34 -384 0
-127 -384 0
-34 127 384 0
c gate 385 -126 -384 0
-126 -385 0
-384 -385 0
126 384 385 0
c gate 386 -383 385 0
-383 -386 0
385 -386 0
383 -385 386 0
c gate 387 31 127 0
31 -387 0
127 -387 0
-31 -127 387 0
c gate 388 33 -127 0
33 -388 0
-127 -388 0
-33 127 388 0
c gate 389 126 -388 0
126 -389 0
-388 -389 0
-126 388 389 0
c gate 390 -387 389 0
-387 -390 0
389 -390 0
387 -389 390 0
c gate 391 -386 -390 0
-386 -391 0
-390 -391 0
386 390 391 0
c gate 392 -129 -391 0
-129 -392 0
-391 -392 0
129 391 392 0
c gate 393 -382 -392 0
-382 -393 0
-392 -393 0
382 392 393 0
c gate 394 -128 -393 0
-128 -394 0
-393 -394 0
128 393 394 0
c gate 395 131 -394 0
131 -395 0
-394 -395 0
-131 394 395 0
c gate 396 -372 395 0
-372 -396 0
395 -396 0
372 -395 396 0
c gate 397 -350 -396 0
-350 -397 0
-396 -397 0
350 396 397 0
c gate 398 130 -397 0
130 -398 0
-397 -398 0
-130 397 398 0
c gate 399 132 398 0
132 -399 0
398 -399 0
-132 -398 399 0
c gate 400 -304 -399 0
-304 -400 0
-399 -400 0
304 399 400 0
c gate 401 129 359 0
129 -401 0
359 -401 0
-129 -359 401 0
c gate 402 -35 127 0
-35 -402 0
127 -402 0
35 -127 402 0
c gate 403 -37 -127 0
-37 -403 0
-127 -403 0
37 127 403 0
c gate 404 126 -403 0
126 -404 0
-403 -404 0
-126 403 404 0
c gate 405 -402 404 0
-402 -405 0
404 -405 0
402 -404 405 0
c gate 406 -36 127 0
-36 -406 0
127 -406 0
36 -127 406 0
c gate 407 -38 -127 0
-38 -407 0
-127 -407 0
38 127 407 0
c gate 408 -126 -407 0
-126 -408 0
-407 -408 0
126 407 408 0
c gate 409 -406 408 0
-406 -409 0
408 -409 0
406 -408 409 0
c gate 410 -405 -409 0
-405 -410 0
-409 -410 0
405 409 410 0
c gate 411 -129 -410 0
-129 -411 0
-410 -411 0
129 410 411 0
c gate 412 -128 -411 0
-128 -412 0
-411 -412 0
128 411 412 0
c gate 413 -401 412 0
-401 -413 0
412 -413 0
401 -412 413 0
c gate 414 128 -393 0
128 -414 0
-393 -414 0
-128 393 414 0
c gate 415 -131 -414 0
-131 -415 0
-414 -415 0
131 414 415 0
c gate 416 -413 415 0
-413 -416 0
415 -416 0
413 -415 416 0
c gate 417 -3 -127 0
-3 -417 0
-127 -417 0
3 127 417 0
c gate 418 -1 127 0
-1 -418 0
127 -418 0
1 -127 418 0
c gate 419 -417 -418 0
-417 -419 0
-418 -419 0
417 418 419 0
c gate 420 126 419 0
126 -420 0
419 -420 0
-126 -419 420 0
c gate 421 -4 -127 0
-4 -421 0
-127 -421 0
4 127 421 0
c gate 422 -2 127 0
-2 -422 0
127 -422 0
2 -127 422 0
c gate 423 -126 -422 0
-126 -423 0
-422 -423 0
126 422 423 0
c gate 424 -421 423 0
-421 -424 0
423 -424 0
421 -423 424 0
c gate 425 -129 -424 0
-129 -425 0
-424 -425 0
129 424 425 0
c gate 426 -420 425 0
-420 -426 0
425 -426 0
420 -425 426 0
c gate 427 -120 -127 0
-120 -427 0
-127 -427 0
120 127 427 0
c gate 428 -118 127 0
-118 -428 0
127 -428 0
118 -127 428 0
c gate 429 -427 -428 0
-427 -429 0
-428 -429 0
427 428 429 0
c gate 430 126 429 0
126 -430 0
429 -430 0
-126 -429 430 0
c gate 431 -121 -127 0
-121 -431 0
-127 -431 0
121 127 431 0
c gate 432 -119 127 0
-119 -432 0
127 -432 0
119 -127 432 0
c gate 433 -126 -432 0
-126 -433 0
-432 -433 0
126 432 433 0
c gate 434 -431 433 0
-431 -434 0
433 -434 0
431 -433 434 0
c gate 435 129 -434 0
129 -435 0
-434 -435 0
-129 434 435 0
c gate 436 -430 435 0
-430 -436 0
435 -436 0
430 -435 436 0
c gate 437 -426 -436 0
-426 -437 0
-436 -437 0
426 436 437 0
c gate 438 128 -437 0
128 -438 0
-437 -438 0
-128 437 438 0
c gate 439 6 127 0
6 -439 0
127 -439 0
-6 -127 439 0
c gate 440 8 -127 0
8 -440 0
-127 -440 0
-8 127 440 0
c gate 441 -126 -440 0
-126 -441 0
-440 -441 0
126 440 441 0
c gate 442 -439 441 0
-439 -442 0
441 -442 0
439 -441 442 0
c gate 443 5 127 0
5 -443 0
127 -443 0
-5 -127 443 0
c gate 444 7 -127 0
7 -444 0
-127 -444 0
-7 127 444 0
c gate 445 126 -444 0
126 -445 0
-444 -445 0
-126 444 445 0
c gate 446 -443 445 0
-443 -446 0
445 -446 0
443 -445 446 0
c gate 447 -442 -446 0
-442 -447 0
-446 -447 0
442 446 447 0
c gate 448 -129 -447 0
-129 -448 0
-447 -448 0
129 447 448 0
c gate 449 125 -127 0
125 -449 0
-127 -449 0
-125 127 449 0
c gate 450 123 127 0
123 -450 0
127 -450 0
-123 -127 450 0
c gate 451 -449 -450 0
-449 -451 0
-450 -451 0
449 450 451 0
c gate 452 -126 -451 0
-126 -452 0
-451 -452 0
126 451 452 0
c gate 453 -124 -127 0
-124 -453 0
-127 -453 0
124 127 453 0
c gate 454 -122 127 0
-122 -454 0
127 -454 0
122 -127 454 0
c gate 455 -453 -454 0
-453 -455 0
-454 -455 0
453 454 455 0
c gate 456 126 455 0
126 -456 0
455 -456 0
-126 -455 456 0
c gate 457 129 -456 0
129 -457 0
-456 -457 0
-129 456 457 0
c gate 458 -452 457 0
-452 -458 0
457 -458 0
452 -457 458 0
c gate 459 -448 -458 0
-448 -459 0
-458 -459 0
448 458 459 0
c gate 460 -128 -459 0
-128 -460 0
-459 -460 0
128 459 460 0
c gate 461 -438 -460 0
-438 -461 0
-460 -461 0
438 460 461 0
c gate 462 131 461 0
131 -462 0
461 -462 0
-131 -461 462 0
c gate 463 130 -462 0
130 -463 0
-462 -463 0
-130 462 463 0
c gate 464 -416 463 0
-416 -464 0
463 -464 0
416 -463 464 0
c gate 465 132 464 0
132 -465 0
464 -465 0
-132 -464 465 0
c gate 466 -132 226 0
-132 -466 0
226 -466 0
132 -226 466 0
c gate 467 -88 -127 0
-88 -467 0
-127 -467 0
88 127 467 0
c gate 468 -86 127 0
-86 -468 0
127 -468 0
86 -127 468 0
c gate 469 -467 -468 0
-467 -469 0
-468 -469 0
467 468 469 0
c gate 470 126 469 0
126 -470 0
469 -470 0
-126 -469 470 0
c gate 471 -89 -127 0
-89 -471 0
-127 -471 0
89 127 471 0
c gate 472 -87 127 0
-87 -472 0
127 -472 0
87 -127 472 0
c gate 473 -126 -472 0
-126 -473 0
-472 -473 0
126 472 473 0
c gate 474 -471 473 0
-471 -474 0
473 -474 0
471 -473 474 0
c gate 475 129 -474 0
129 -475 0
-474 -475 0
-129 474 475 0
c gate 476 -470 475 0
-470 -476 0
475 -476 0
470 -475 476 0
c gate 477 -96 -127 0
-96 -477 0
-127 -477 0
96 127 477 0
c gate 478 -94 127 0
-94 -478 0
127 -478 0
94 -127 478 0
c gate 479 -477 -478 0
-477 -479 0
-478 -479 0
477 478 479 0
c gate 480 126 479 0
126 -480 0
479 -480 0
-126 -479 480 0
c gate 481 -95 127 0
-95 -481 0
127 -481 0
95 -127 481 0
c gate 482 -97 -127 0
-97 -482 0
-127 -482 0
97 127 482 0
c gate 483 -481 -482 0
-481 -483 0
-482 -483 0
481 482 483 0
c gate 484 -126 483 0
-126 -484 0
483 -484 0
126 -483 484 0
c gate 485 -129 -484 0
-129 -485 0
-484 -485 0
129 484 485 0
c gate 486 -480 485 0
-480 -486 0
485 -486 0
480 -485 486 0
c gate 487 -476 -486 0
-476 -487 0
-486 -487 0
476 486 487 0
c gate 488 128 -487 0
128 -488 0
-487 -488 0
-128 487 488 0
c gate 489 -98 127 0
-98 -489 0
127 -489 0
98 -127 489 0
c gate 490 -100 -127 0
-100 -490 0
-127 -490 0
100 127 490 0
c gate 491 126 -490 0
126 -491 0
-490 -491 0
-126 490 491 0
c gate 492 -489 491 0
-489 -492 0
491 -492 0
489 -491 492 0
c gate 493 -99 127 0
-99 -493 0
127 -493 0
99 -127 493 0
c gate 494 -101 -127 0
-101 -494 0
-127 -494 0
101 127 494 0
c gate 495 -493 -494 0
-493 -495 0
-494 -495 0
493 494 495 0
c gate 496 -126 495 0
-126 -496 0
495 -496 0
126 -495 496 0
c gate 497 -129 -496 0
-129 -497 0
-496 -497 0
129 496 497 0
c gate 498 -492 497 0
-492 -498 0
497 -498 0
492 -497 498 0
c gate 499 -92 -127 0
-92 -499 0
-127 -499 0
92 127 499 0
c gate 500 -90 127 0
-90 -500 0
127 -500 0
90 -127 500 0
c gate 501 -499 -500 0
-499 -501 0
-500 -501 0
499 500 501 0
c gate 502 126 501 0
126 -502 0
501 -502 0
-126 -501 502 0
c gate 503 -93 -127 0
-93 -503 0
-127 -503 0
93 127 503 0
c gate 504 -91 127 0
-91 -504 0
127 -504 0
91 -127 504 0
c gate 505 -126 -504 0
-126 -505 0
-504 -505 0
126 504 505 0
c gate 506 -503 505 0
-503 -506 0
505 -506 0
503 -505 506 0
c gate 507 129 -506 0
129 -507 0
-506 -507 0
-129 506 507 0
c gate 508 -502 507 0
-502 -508 0
507 -508 0
502 -507 508 0
c gate 509 -498 -508 0
-498 -509 0
-508 -509 0
498 508 509 0
c gate 510 -128 -509 0
-128 -510 0
-509 -510 0
128 509 510 0
c gate 511 131 -510 0
131 -511 0
-510 -511 0
-131 510 511 0
c gate 512 -488 511 0
-488 -512 0
511 -512 0
488 -511 512 0
c gate 513 -131 461 0
-131 -513 0
461 -513 0
131 -461 513 0
c gate 514 130 -513 0
130 -514 0
-513 -514 0
-130 513 514 0
c gate 515 -512 514 0
-512 -515 0
514 -515 0
512 -514 515 0
c gate 516 132 515 0
132 -516 0
515 -516 0
-132 -515 516 0
c gate 517 -87 -127 0
-87 -517 0
-127 -517 0
87 127 517 0
c gate 518 -85 127 0
-85 -518 0
127 -518 0
85 -127 518 0
c gate 519 126 -518 0
126 -519 0
-518 -519 0
-126 518 519 0
c gate 520 -517 519 0
-517 -520 0
519 -520 0
517 -519 520 0
c gate 521 -126 469 0
-126 -521 0
469 -521 0
126 -469 521 0
c gate 522 129 -521 0
129 -522 0
-521 -522 0
-129 521 522 0
c gate 523 -520 522 0
-520 -523 0
522 -523 0
520 -522 523 0
c gate 524 -95 -127 0
-95 -524 0
-127 -524 0
95 127 524 0
c gate 525 -93 127 0
-93 -525 0
127 -525 0
93 -127 525 0
c gate 526 126 -525 0
126 -526 0
-525 -526 0
-126 525 526 0
c gate 527 -524 526 0
-524 -527 0
526 -527 0
524 -526 527 0
c gate 528 -126 479 0
-126 -528 0
479 -528 0
126 -479 528 0
c gate 529 -129 -528 0
-129 -529 0
-528 -529 0
129 528 529 0
c gate 530 -527 529 0
-527 -530 0
529 -530 0
527 -529 530 0
c gate 531 -128 -530 0
-128 -531 0
-530 -531 0
128 530 531 0
c gate 532 -523 531 0
-523 -532 0
531 -532 0
523 -531 532 0
c gate 533 -91 -127 0
-91 -533 0
-127 -533 0
91 127 533 0
c gate 534 -89 127 0
-89 -534 0
127 -534 0
89 -127 534 0
c gate 535 126 -534 0
126 -535 0
-534 -535 0
-126 534 535 0
c gate 536 -533 535 0
-533 -536 0
535 -536 0
533 -535 536 0
c gate 537 -126 501 0
-126 -537 0
501 -537 0
126 -501 537 0
c gate 538 -129 -537 0
-129 -538 0
-537 -538 0
129 537 538 0
c gate 539 -536 538 0
-536 -539 0
538 -539 0
536 -538 539 0
c gate 540 -82 127 0
-82 -540 0
127 -540 0
82 -127 540 0
c gate 541 -84 -127 0
-84 -541 0
-127 -541 0
84 127 541 0
c gate 542 -126 -541 0
-126 -542 0
-541 -542 0
126 541 542 0
c gate 543 -540 542 0
-540 -543 0
542 -543 0
540 -542 543 0
c gate 544 -81 127 0
-81 -544 0
127 -544 0
81 -127 544 0
c gate 545 -83 -127 0
-83 -545 0
-127 -545 0
83 127 545 0
c gate 546 126 -545 0
126 -546 0
-545 -546 0
-126 545 546 0
c gate 547 -544 546 0
-544 -547 0
546 -547 0
544 -546 547 0
c gate 548 129 -547 0
129 -548 0
-547 -548 0
-129 547 548 0
c gate 549 -543 548 0
-543 -549 0
548 -549 0
543 -548 549 0
c gate 550 128 -549 0
128 -550 0
-549 -550 0
-128 549 550 0
c gate 551 -539 550 0
-539 -551 0
550 -551 0
539 -550 551 0
c gate 552 -532 -551 0
-532 -552 0
-551 -552 0
532 551 552 0
c gate 553 131 -552 0
131 -553 0
-552 -553 0
-131 552 553 0
c gate 554 -114 127 0
-114 -554 0
127 -554 0
114 -127 554 0
c gate 555 -116 -127 0
-116 -555 0
-127 -555 0
116 127 555 0
c gate 556 -126 -555 0
-126 -556 0
-555 -556 0
126 555 556 0
c gate 557 -554 556 0
-554 -557 0
556 -557 0
554 -556 557 0
c gate 558 115 -127 0
115 -558 0
-127 -558 0
-115 127 558 0
c gate 559 113 127 0
113 -559 0
127 -559 0
-113 -127 559 0
c gate 560 -558 -559 0
-558 -560 0
-559 -560 0
558 559 560 0
c gate 561 126 -560 0
126 -561 0
-560 -561 0
-126 560 561 0
c gate 562 129 -561 0
129 -562 0
-561 -562 0
-129 561 562 0
c gate 563 -557 562 0
-557 -563 0
562 -563 0
557 -562 563 0
c gate 564 -123 -127 0
-123 -564 0
-127 -564 0
123 127 564 0
c gate 565 -121 127 0
-121 -565 0
127 -565 0
121 -127 565 0
c gate 566 126 -565 0
126 -566 0
-565 -566 0
-126 565 566 0
c gate 567 -564 566 0
-564 -567 0
566 -567 0
564 -566 567 0
c gate 568 -126 455 0
-126 -568 0
455 -568 0
126 -455 568 0
c gate 569 -129 -568 0
-129 -569 0
-568 -569 0
129 568 569 0
c gate 570 -567 569 0
-567 -570 0
569 -570 0
567 -569 570 0
c gate 571 -563 -570 0
-563 -571 0
-570 -571 0
563 570 571 0
c gate 572 128 -571 0
128 -572 0
-571 -572 0
-128 571 572 0
c gate 573 119 -127 0
119 -573 0
-127 -573 0
-119 127 573 0
c gate 574 117 127 0
117 -574 0
127 -574 0
-117 -127 574 0
c gate 575 -573 -574 0
-573 -575 0
-574 -575 0
573 574 575 0
c gate 576 126 -575 0
126 -576 0
-575 -576 0
-126 575 576 0
c gate 577 -126 429 0
-126 -577 0
429 -577 0
126 -429 577 0
c gate 578 129 -577 0
129 -578 0
-577 -578 0
-129 577 578 0
c gate 579 -576 578 0
-576 -579 0
578 -579 0
576 -578 579 0
c gate 580 -2 -127 0
-2 -580 0
-127 -580 0
2 127 580 0
c gate 581 -125 127 0
-125 -581 0
127 -581 0
125 -127 581 0
c gate 582 126 -581 0
126 -582 0
-581 -582 0
-126 581 582 0
c gate 583 -580 582 0
-580 -583 0
582 -583 0
580 -582 583 0
c gate 584 -126 419 0
-126 -584 0
419 -584 0
126 -419 584 0
c gate 585 -129 -584 0
-129 -585 0
-584 -585 0
129 584 585 0
c gate 586 -583 585 0
-583 -586 0
585 -586 0
583 -585 586 0
c gate 587 -579 -586 0
-579 -587 0
-586 -587 0
579 586 587 0
c gate 588 -128 -587 0
-128 -588 0
-587 -588 0
128 587 588 0
c gate 589 -131 -588 0
-131 -589 0
-588 -589 0
131 588 589 0
c gate 590 -572 589 0
-572 -590 0
589 -590 0
572 -589 590 0
c gate 591 130 -590 0
130 -591 0
-590 -591 0
-130 590 591 0
c gate 592 -553 591 0
-553 -592 0
591 -592 0
553 -591 592 0
c gate 593 132 592 0
132 -593 0
592 -593 0
-132 -592 593 0
c gate 594 -132 303 0
-132 -594 0
303 -594 0
132 -303 594 0
c gate 595 -227 400 0
-227 -595 0
400 -595 0
227 -400 595 0
c gate 596 105 127 0
105 -596 0
127 -596 0
-105 -127 596 0
c gate 597 107 -127 0
107 -597 0
-127 -597 0
-107 127 597 0
c gate 598 -126 -597 0
-126 -598 0
-597 -598 0
126 597 598 0
c gate 599 -596 598 0
-596 -599 0
598 -599 0
596 -598 599 0
c gate 600 -106 -127 0
-106 -600 0
-127 -600 0
106 127 600 0
c gate 601 -104 127 0
-104 -601 0
127 -601 0
104 -127 601 0
c gate 602 -600 -601 0
-600 -602 0
-601 -602 0
600 601 602 0
c gate 603 126 -602 0
126 -603 0
-602 -603 0
-126 602 603 0
c gate 604 129 -603 0
129 -604 0
-603 -604 0
-129 603 604 0
c gate 605 -599 604 0
-599 -605 0
604 -605 0
599 -604 605 0
c gate 606 114 -127 0
114 -606 0
-127 -606 0
-114 127 606 0
c gate 607 112 127 0
112 -607 0
127 -607 0
-112 -127 607 0
c gate 608 126 -607 0
126 -608 0
-607 -608 0
-126 607 608 0
c gate 609 -606 608 0
-606 -609 0
608 -609 0
606 -608 609 0
c gate 610 -126 560 0
-126 -610 0
560 -610 0
126 -560 610 0
c gate 611 -129 -610 0
-129 -611 0
-610 -611 0
129 610 611 0
c gate 612 -609 611 0
-609 -612 0
611 -612 0
609 -611 612 0
c gate 613 -605 -612 0
-605 -613 0
-612 -613 0
605 612 613 0
c gate 614 128 -613 0
128 -614 0
-613 -614 0
-128 613 614 0
c gate 615 109 127 0
109 -615 0
127 -615 0
-109 -127 615 0
c gate 616 111 -127 0
111 -616 0
-127 -616 0
-111 127 616 0
c gate 617 -126 -616 0
-126 -617 0
-616 -617 0
126 616 617 0
c gate 618 -615 617 0
-615 -618 0
617 -618 0
615 -617 618 0
c gate 619 -110 -127 0
-110 -619 0
-127 -619 0
110 127 619 0
c gate 620 -108 127 0
-108 -620 0
127 -620 0
108 -127 620 0
c gate 621 -619 -620 0
-619 -621 0
-620 -621 0
619 620 621 0
c gate 622 126 -621 0
126 -622 0
-621 -622 0
-126 621 622 0
c gate 623 129 -622 0
129 -623 0
-622 -623 0
-129 622 623 0
c gate 624 -618 623 0
-618 -624 0
623 -624 0
618 -623 624 0
c gate 625 118 -127 0
118 -625 0
-127 -625 0
-118 127 625 0
c gate 626 116 127 0
116 -626 0
127 -626 0
-116 -127 626 0
c gate 627 126 -626 0
126 -627 0
-626 -627 0
-126 626 627 0
c gate 628 -625 627 0
-625 -628 0
627 -628 0
625 -627 628 0
c gate 629 -126 575 0
-126 -629 0
575 -629 0
126 -575 629 0
c gate 630 -129 -629 0
-129 -630 0
-629 -630 0
129 629 630 0
c gate 631 -628 630 0
-628 -631 0
630 -631 0
628 -630 631 0
c gate 632 -624 -631 0
-624 -632 0
-631 -632 0
624 631 632 0
c gate 633 -128 -632 0
-128 -633 0
-632 -633 0
128 632 633 0
c gate 634 131 -633 0
131 -634 0
-633 -634 0
-131 633 634 0
c gate 635 -614 634 0
-614 -635 0
634 -635 0
614 -634 635 0
c gate 636 -131 272 0
-131 -636 0
272 -636 0
131 -272 636 0
c gate 637 130 -636 0
130 -637 0
-636 -637 0
-130 636 637 0
c gate 638 -635 637 0
-635 -638 0
637 -638 0
635 -637 638 0
c gate 639 -132 638 0
-132 -639 0
638 -639 0
132 -638 639 0
c gate 640 595 -639 0
595 -640 0
-639 -640 0
-595 639 640 0
c gate 641 -103 127 0
-103 -641 0
127 -641 0
103 -127 641 0
c gate 642 -105 -127 0
-105 -642 0
-127 -642 0
105 127 642 0
c gate 643 126 -642 0
126 -643 0
-642 -643 0
-126 642 643 0
c gate 644 -641 643 0
-641 -644 0
643 -644 0
641 -643 644 0
c gate 645 -126 602 0
-126 -645 0
602 -645 0
126 -602 645 0
c gate 646 -129 -645 0
-129 -646 0
-645 -646 0
129 645 646 0
c gate 647 -644 646 0
-644 -647 0
646 -647 0
644 -646 647 0
c gate 648 126 483 0
126 -648 0
483 -648 0
-126 -483 648 0
c gate 649 -98 -127 0
-98 -649 0
-127 -649 0
98 127 649 0
c gate 650 -96 127 0
-96 -650 0
127 -650 0
96 -127 650 0
c gate 651 -126 -650 0
-126 -651 0
-650 -651 0
126 650 651 0
c gate 652 -649 651 0
-649 -652 0
651 -652 0
649 -651 652 0
c gate 653 129 -652 0
129 -653 0
-652 -653 0
-129 652 653 0
c gate 654 -648 653 0
-648 -654 0
653 -654 0
648 -653 654 0
c gate 655 -647 -654 0
-647 -655 0
-654 -655 0
647 654 655 0
c gate 656 128 -655 0
128 -656 0
-655 -656 0
-128 655 656 0
c gate 657 126 495 0
126 -657 0
495 -657 0
-126 -495 657 0
c gate 658 -102 -127 0
-102 -658 0
-127 -658 0
102 127 658 0
c gate 659 -100 127 0
-100 -659 0
127 -659 0
100 -127 659 0
c gate 660 -126 -659 0
-126 -660 0
-659 -660 0
126 659 660 0
c gate 661 -658 660 0
-658 -661 0
660 -661 0
658 -660 661 0
c gate 662 129 -661 0
129 -662 0
-661 -662 0
-129 661 662 0
c gate 663 -657 662 0
-657 -663 0
662 -663 0
657 -662 663 0
c gate 664 -107 127 0
-107 -664 0
127 -664 0
107 -127 664 0
c gate 665 -109 -127 0
-109 -665 0
-127 -665 0
109 127 665 0
c gate 666 126 -665 0
126 -666 0
-665 -666 0
-126 665 666 0
c gate 667 -664 666 0
-664 -667 0
666 -667 0
664 -666 667 0
c gate 668 -126 621 0
-126 -668 0
621 -668 0
126 -621 668 0
c gate 669 -129 -668 0
-129 -669 0
-668 -669 0
129 668 669 0
c gate 670 -667 669 0
-667 -670 0
669 -670 0
667 -669 670 0
c gate 671 -663 -670 0
-663 -671 0
-670 -671 0
663 670 671 0
c gate 672 -128 -671 0
-128 -672 0
-671 -672 0
128 671 672 0
c gate 673 -131 -672 0
-131 -673 0
-672 -673 0
131 672 673 0
c gate 674 -656 673 0
-656 -674 0
673 -674 0
656 -673 674 0
c gate 675 -74 -127 0
-74 -675 0
-127 -675 0
74 127 675 0
c gate 676 -72 127 0
-72 -676 0
127 -676 0
72 -127 676 0
c gate 677 126 -676 0
126 -677 0
-676 -677 0
-126 676 677 0
c gate 678 -675 677 0
-675 -678 0
677 -678 0
675 -677 678 0
c gate 679 -126 191 0
-126 -679 0
191 -679 0
126 -191 679 0
c gate 680 -129 -679 0
-129 -680 0
-679 -680 0
129 679 680 0
c gate 681 -678 680 0
-678 -681 0
680 -681 0
678 -680 681 0
c gate 682 126 321 0
126 -682 0
321 -682 0
-126 -321 682 0
c gate 683 -126 181 0
-126 -683 0
181 -683 0
126 -181 683 0
c gate 684 129 -683 0
129 -684 0
-683 -684 0
-129 683 684 0
c gate 685 -682 684 0
-682 -685 0
684 -685 0
682 -684 685 0
c gate 686 -681 -685 0
-681 -686 0
-685 -686 0
681 685 686 0
c gate 687 128 -686 0
128 -687 0
-686 -687 0
-128 686 687 0
c gate 688 -70 -127 0
-70 -688 0
-127 -688 0
70 127 688 0
c gate 689 -68 127 0
-68 -689 0
127 -689 0
68 -127 689 0
c gate 690 126 -689 0
126 -690 0
-689 -690 0
-126 689 690 0
c gate 691 -688 690 0
-688 -691 0
690 -691 0
688 -690 691 0
c gate 692 -126 213 0
-126 -692 0
213 -692 0
126 -213 692 0
c gate 693 129 -692 0
129 -693 0
-692 -693 0
-129 692 693 0
c gate 694 -691 693 0
-691 -694 0
693 -694 0
691 -693 694 0
c gate 695 -78 -127 0
-78 -695 0
-127 -695 0
78 127 695 0
c gate 696 -76 127 0
-76 -696 0
127 -696 0
76 -127 696 0
c gate 697 126 -696 0
126 -697 0
-696 -697 0
-126 696 697 0
c gate 698 -695 697 0
-695 -698 0
697 -698 0
695 -697 698 0
c gate 699 -126 203 0
-126 -699 0
203 -699 0
126 -203 699 0
c gate 700 -129 -699 0
-129 -700 0
-699 -700 0
129 699 700 0
c gate 701 -698 700 0
-698 -701 0
700 -701 0
698 -700 701 0
c gate 702 -694 -701 0
-694 -702 0
-701 -702 0
694 701 702 0
c gate 703 -128 -702 0
-128 -703 0
-702 -703 0
128 702 703 0
c gate 704 131 -703 0
131 -704 0
-703 -704 0
-131 703 704 0
c gate 705 -687 704 0
-687 -705 0
704 -705 0
687 -704 705 0
c gate 706 130 -705 0
130 -706 0
-705 -706 0
-130 705 706 0
c gate 707 -674 706 0
-674 -707 0
706 -707 0
674 -706 707 0
c gate 708 132 707 0
132 -708 0
707 -708 0
-132 -707 708 0
c gate 709 -132 464 0
-132 -709 0
464 -709 0
132 -464 709 0
c gate 710 -708 -709 0
-708 -710 0
-709 -710 0
708 709 710 0
c gate 711 -640 710 0
-640 -711 0
710 -711 0
640 -710 711 0
c gate 712 -594 -711 0
-594 -712 0
-711 -712 0
594 711 712 0
c gate 713 -593 -712 0
-593 -713 0
-712 -713 0
593 712 713 0
c gate 714 -132 398 0
-132 -714 0
398 -714 0
132 -398 714 0
c gate 715 -713 -714 0
-713 -715 0
-714 -715 0
713 714 715 0
c gate 716 -516 -715 0
-516 -716 0
-715 -716 0
516 715 716 0
c gate 717 -466 -716 0
-466 -717 0
-716 -717 0
466 716 717 0
c gate 718 132 638 0
132 -718 0
638 -718 0
-132 -638 718 0
c gate 719 717 -718 0
717 -719 0
-718 -719 0
-717 718 719 0
c gate 720 -465 -719 0
-465 -720 0
-719 -720 0
465 719 720 0
c gate 721 -400 -720 0
-400 -721 0
-720 -721 0
400 720 721 0
c gate 722 -132 707 0
-132 -722 0
707 -722 0
132 -707 722 0
c gate 723 -132 592 0
-132 -723 0
592 -723 0
132 -592 723 0
c gate 724 -722 -723 0
-722 -724 0
-723 -724 0
722 723 724 0
c gate 725 -132 515 0
-132 -725 0
515 -725 0
132 -515 725 0
c gate 726 724 -725 0
724 -726 0
-725 -726 0
-724 725 726 0
c gate 727 720 -726 0
720 -727 0
-726 -727 0
-720 726 727 0
c gate 728 -721 -727 0
-721 -728 0
-727 -728 0
721 727 728 0
c gate 729 227 -728 0
227 -729 0
-728 -729 0
-227 728 729 0
c gate 730 -227 728 0
-227 -730 0
728 -730 0
227 -728 730 0
c gate 731 -729 -730 0
-729 -731 0
-730 -731 0
729 730 731 0
c PO
731 0
